NAME : cgl_51b.4146.tour
COMMENT : Length = 4146
COMMENT : Found by LKH-3 [Keld Helsgaun] Fri Nov  8 17:38:20 2024
TYPE : TOUR
DIMENSION : 52
TOUR_SECTION
16
18
20
19
21
22
23
26
24
25
27
28
29
52
42
40
41
39
37
38
36
35
34
33
50
43
44
46
45
51
47
48
49
32
31
30
1
2
3
4
7
8
5
6
9
11
12
10
13
17
14
15
-1
EOF
